p cnf 15 31
-10 6 0
-10 2 0
-10 -5 0
10 -2 5 0
-9 5 0
-9 2 0
-9 -6 0
9 -2 6 0
-8 4 0
-8 1 0
-8 -3 0
8 -1 3 0
-7 3 0
-7 1 0
-7 -4 0
7 -1 4 0
-6 -4 0
-5 -3 0
-6 10 0
-5 9 0
-4 8 0
-3 7 0
-15 0
2 -14 0
-2 14 0
2 13 0
-2 -13 0
1 -12 0
-1 12 0
1 11 0
-1 -11 0
